(define-fun-rec
  v7
  ((x Int) (y Int) (z Int)) Int (ite (<= x 0) z (v7 (- x 1) y z)))
(define-fun-rec
  v6
  ((x Int) (y Int) (z Int)) Int (ite (<= x 0) z (v6 (- x 1) y z)))
(define-fun-rec
  u7
  ((x Int) (y Int) (z Int)) Int
  (ite (<= x 0) y (* (u7 (- x 1) y z) (v7 (- x 1) y z))))
(define-fun-rec
  u6
  ((x Int) (y Int) (z Int)) Int
  (ite (<= x 0) y (* (u6 (- x 1) y z) (v6 (- x 1) y z))))
(define-fun
  j7
  () Int (+ 1 2))
(define-fun
  j6
  () Int (+ 1 (+ 2 (* 2 (+ 2 2)))))
(define-fun
  i7
  () Int (+ 1 2))
(define-fun
  w7
  ((x Int)) Int (u7 x i7 j7))
(define-fun
  h7
  ((x Int)) Int x)
(define-fun
  h6
  ((x Int)) Int (+ 1 x))
(define-fun
  w6
  ((x Int)) Int (u6 (h6 x) 1 j6))
(define-fun
  h5
  ((x Int) (y Int)) Int y)
(define-fun
  h3
  ((x Int)) Int x)
(define-fun
  g7
  ((x Int) (y Int)) Int y)
(define-fun
  g6
  ((x Int) (y Int)) Int y)
(define-fun
  g4
  ((x Int)) Int x)
(define-fun
  g2
  ((x Int) (y Int)) Int y)
(define-fun
  g1
  ((x Int) (y Int)) Int y)
(define-fun
  g0
  ((x Int)) Int x)
(define-fun
  f5
  ((x Int)) Int (div (div (div (- (w6 x) (w7 x)) 2) 2) 2))
(define-fun-rec
  u5
  ((x Int) (y Int)) Int (ite (<= x 0) y (f5 (u5 (- x 1) y))))
(define-fun
  v5
  ((x Int) (y Int)) Int (u5 1 y))
(define-fun
  f4
  ((x Int) (y Int)) Int (+ (v5 x y) (* 2 (+ (* 2 (+ x x)) x))))
(define-fun-rec
  u4
  ((x Int) (y Int)) Int (ite (<= x 0) y (f4 (u4 (- x 1) y) x)))
(define-fun
  v4
  ((x Int)) Int (u4 x 1))
(define-fun
  f3
  ((x Int) (y Int)) Int (* (+ 2 y) x))
(define-fun-rec
  u3
  ((x Int) (y Int)) Int (ite (<= x 0) y (f3 (u3 (- x 1) y) x)))
(define-fun
  v3
  ((x Int)) Int (u3 2 x))
(define-fun
  f2
  ((x Int)) Int (- (v3 x) x))
(define-fun-rec
  u2
  ((x Int) (y Int)) Int (ite (<= x 0) y (f2 (u2 (- x 1) y))))
(define-fun
  v2
  ((x Int) (y Int)) Int (u2 y 1))
(define-fun
  f1
  ((x Int) (y Int)) Int (+ (v2 x y) (* 2 (+ (* 2 (+ x x)) x))))
(define-fun-rec
  u1
  ((x Int) (y Int)) Int (ite (<= x 0) y (f1 (u1 (- x 1) y) x)))
(define-fun
  v1
  ((x Int) (y Int)) Int (u1 y 1))
(define-fun
  f0
  ((x Int) (y Int)) Int (+ (+ (+ (v1 x y) x) x) x))
(define-fun-rec
  u0
  ((x Int) (y Int)) Int (ite (<= x 0) y (f0 (u0 (- x 1) y) x)))
(define-fun
  v0
  ((x Int)) Int (u0 x 1))
(assert-not
  (forall ((c Int)) (or (not (>= c 0)) (= (v0 c) (v4 c)))))
